./go_sCASP-clingo 


*************	 Clingo: ?- holdsAt(light_red,_) 	 precision(1) 

clingo version 5.2.0
Reading from theory.clingo ...
theory.clingo:19:35-53: info: atom does not occur in any rule head:
  initiallyP(Fluent)

Solving...
UNSATISFIABLE

Models       : 0
Calls        : 1
Time         : 0.004s (Solving: 0.00s 1st Model: 0.00s Unsat: 0.00s)
CPU Time     : 0.004s

real	0m0.009s
user	0m0.006s
sys	0m0.002s

	 This result is incorrect due to the tiny precision



*************	 Clingo: ?- holdsAt(light_red,69) 	 precision(10) 

clingo version 5.2.0
Reading from theory.clingo ...
theory.clingo:19:35-53: info: atom does not occur in any rule head:
  initiallyP(Fluent)

Solving...
SATISFIABLE

Models       : 1
Calls        : 1
Time         : 0.069s (Solving: 0.00s 1st Model: 0.00s Unsat: 0.00s)
CPU Time     : 0.068s

real	0m0.080s
user	0m0.073s
sys	0m0.004s


*************	 Clingo: ?- holdsAt(light_red,699) 	 precision(100) 

clingo version 5.2.0
Reading from theory.clingo ...
theory.clingo:19:35-53: info: atom does not occur in any rule head:
  initiallyP(Fluent)

Solving...
SATISFIABLE

Models       : 1
Calls        : 1
Time         : 7.705s (Solving: 0.00s 1st Model: 0.00s Unsat: 0.00s)
CPU Time     : 7.685s

real	0m9.058s
user	0m8.798s
sys	0m0.237s


*************	 Clingo: ?- holdsAt(light_red,6999) 	 precision(1000) 

timeout 5 min


*************	 s(CASP): ?- holdsAt(light_red,6.9) 


Loading files: [bec_light_01.pl,bec_query01.pl]

Default query:
	?- holdsAt(light_red,6.9).


Answer 1	(in 42.345 ms):
{  holdsAt(light_red,6.9) ,  initiates(turn_on,light_on,6) ,  happens(turn_on,6) ,  trajectory(light_on,6,light_red,6.9) ,  not stoppedIn(6,light_on,6.9) ,  not terminates( {_575 \= [turn_off]} ,light_on, {_508 > 6, _508 < 69/10} ) ,  terminates(turn_off,light_on, {_508 > 6, _508 < 69/10} ) ,  not happens(turn_off, {_508 > 6, _508 < 69/10} ) ,  not releases( {_1679 \= [turn_on]} ,light_on, {_1612 > 6, _1612 < 69/10} ) ,  not releases(turn_on,light_on, {_1612 > 6, _1612 < 69/10} ) ,  not -holdsAt( {_2967 \= [light_on]} , {_2672 =< 0} ) ,  not -holdsAt( {_2967 \= [light_on]} , {_2889 > 0} ) ,  not initiallyN( {_2967 \= [light_on]} ) ,  not terminates( {_3240 \= [turn_off]} , {_2967 \= [light_on]} , {_3162 =< 0} ) ,  not terminates(turn_off, {_2967 \= [light_on]} , {_3162 =< 0} ) ,  not -holdsAt(light_on, {_7198 =< 0} ) ,  not -holdsAt(light_on, {_10337 > 2} ) ,  initiallyN(light_on) ,  startedIn(0,light_on, {_10337 > 2} ) ,  initiates(turn_on,light_on,2) ,  happens(turn_on,2) ,  not terminates( {_10993 \= [turn_off]} ,light_on, {_10915 =< 2} ) ,  terminates(turn_off,light_on, {_10915 =< 2} ) ,  not happens(turn_off, {_10915 =< 2} ) ,  -holdsAt(light_on, {_16360 =< 2, _16360 > 0} ) ,  not startedIn(0,light_on, {_16360 =< 2, _16360 > 0} ) ,  not holdsAt(light_on, {_16360 =< 2, _16360 > 0} ) ,  not initiates( {_27270 \= [turn_on]} ,_26991,_27117) ,  not initiates(turn_on, {_38441 \= [light_on]} ,_38288) ,  initiates(turn_on,light_on, {_50066 \= [2,6]} ) ,  not happens(turn_on, {_50066 \= [2,6]} ) ,  not trajectory(light_on,2,light_on, {_16360 =< 2, _16360 > 0} ) ,  not trajectory(light_on,6,light_on, {_16360 =< 2, _16360 > 0} ) ,  not initiates( {_93497 \= [turn_on]} ,light_on, {_93007 =< 0} ) ,  initiates(turn_on,light_on, {_93007 =< 0} ) ,  not happens(turn_on, {_93007 =< 0} )  }

[holdsAt(light_red,6.9)]


real	0m0.311s
user	0m0.216s
sys	0m0.038s


*************	 s(CASP): ?- holdsAt(light_red,6.99) 


Loading files: [bec_light_01.pl,bec_query02.pl]

Default query:
	?- holdsAt(light_red,6.99).


Answer 1	(in 38.078 ms):
{  holdsAt(light_red,6.99) ,  initiates(turn_on,light_on,6) ,  happens(turn_on,6) ,  trajectory(light_on,6,light_red,6.99) ,  not stoppedIn(6,light_on,6.99) ,  not terminates( {_575 \= [turn_off]} ,light_on, {_508 > 6, _508 < 699/100} ) ,  terminates(turn_off,light_on, {_508 > 6, _508 < 699/100} ) ,  not happens(turn_off, {_508 > 6, _508 < 699/100} ) ,  not releases( {_1679 \= [turn_on]} ,light_on, {_1612 > 6, _1612 < 699/100} ) ,  not releases(turn_on,light_on, {_1612 > 6, _1612 < 699/100} ) ,  not -holdsAt( {_2967 \= [light_on]} , {_2672 =< 0} ) ,  not -holdsAt( {_2967 \= [light_on]} , {_2889 > 0} ) ,  not initiallyN( {_2967 \= [light_on]} ) ,  not terminates( {_3240 \= [turn_off]} , {_2967 \= [light_on]} , {_3162 =< 0} ) ,  not terminates(turn_off, {_2967 \= [light_on]} , {_3162 =< 0} ) ,  not -holdsAt(light_on, {_7198 =< 0} ) ,  not -holdsAt(light_on, {_10337 > 2} ) ,  initiallyN(light_on) ,  startedIn(0,light_on, {_10337 > 2} ) ,  initiates(turn_on,light_on,2) ,  happens(turn_on,2) ,  not terminates( {_10993 \= [turn_off]} ,light_on, {_10915 =< 2} ) ,  terminates(turn_off,light_on, {_10915 =< 2} ) ,  not happens(turn_off, {_10915 =< 2} ) ,  -holdsAt(light_on, {_16360 =< 2, _16360 > 0} ) ,  not startedIn(0,light_on, {_16360 =< 2, _16360 > 0} ) ,  not holdsAt(light_on, {_16360 =< 2, _16360 > 0} ) ,  not initiates( {_27270 \= [turn_on]} ,_26991,_27117) ,  not initiates(turn_on, {_38441 \= [light_on]} ,_38288) ,  initiates(turn_on,light_on, {_50066 \= [2,6]} ) ,  not happens(turn_on, {_50066 \= [2,6]} ) ,  not trajectory(light_on,2,light_on, {_16360 =< 2, _16360 > 0} ) ,  not trajectory(light_on,6,light_on, {_16360 =< 2, _16360 > 0} ) ,  not initiates( {_93497 \= [turn_on]} ,light_on, {_93007 =< 0} ) ,  initiates(turn_on,light_on, {_93007 =< 0} ) ,  not happens(turn_on, {_93007 =< 0} )  }

[holdsAt(light_red,6.99)]


real	0m0.263s
user	0m0.217s
sys	0m0.040s


*************	 s(CASP): ?- holdsAt(light_red,6.999) 


Loading files: [bec_light_01.pl,bec_query03.pl]

Default query:
	?- holdsAt(light_red,6.999).


Answer 1	(in 39.47 ms):
{  holdsAt(light_red,6.999) ,  initiates(turn_on,light_on,6) ,  happens(turn_on,6) ,  trajectory(light_on,6,light_red,6.999) ,  not stoppedIn(6,light_on,6.999) ,  not terminates( {_575 \= [turn_off]} ,light_on, {_508 > 6, _508 < 6999/1000} ) ,  terminates(turn_off,light_on, {_508 > 6, _508 < 6999/1000} ) ,  not happens(turn_off, {_508 > 6, _508 < 6999/1000} ) ,  not releases( {_1679 \= [turn_on]} ,light_on, {_1612 > 6, _1612 < 6999/1000} ) ,  not releases(turn_on,light_on, {_1612 > 6, _1612 < 6999/1000} ) ,  not -holdsAt( {_2967 \= [light_on]} , {_2672 =< 0} ) ,  not -holdsAt( {_2967 \= [light_on]} , {_2889 > 0} ) ,  not initiallyN( {_2967 \= [light_on]} ) ,  not terminates( {_3240 \= [turn_off]} , {_2967 \= [light_on]} , {_3162 =< 0} ) ,  not terminates(turn_off, {_2967 \= [light_on]} , {_3162 =< 0} ) ,  not -holdsAt(light_on, {_7198 =< 0} ) ,  not -holdsAt(light_on, {_10337 > 2} ) ,  initiallyN(light_on) ,  startedIn(0,light_on, {_10337 > 2} ) ,  initiates(turn_on,light_on,2) ,  happens(turn_on,2) ,  not terminates( {_10993 \= [turn_off]} ,light_on, {_10915 =< 2} ) ,  terminates(turn_off,light_on, {_10915 =< 2} ) ,  not happens(turn_off, {_10915 =< 2} ) ,  -holdsAt(light_on, {_16360 =< 2, _16360 > 0} ) ,  not startedIn(0,light_on, {_16360 =< 2, _16360 > 0} ) ,  not holdsAt(light_on, {_16360 =< 2, _16360 > 0} ) ,  not initiates( {_27598 \= [turn_on]} ,_27319,_27445) ,  not initiates(turn_on, {_38769 \= [light_on]} ,_38616) ,  initiates(turn_on,light_on, {_50394 \= [2,6]} ) ,  not happens(turn_on, {_50394 \= [2,6]} ) ,  not trajectory(light_on,2,light_on, {_16360 =< 2, _16360 > 0} ) ,  not trajectory(light_on,6,light_on, {_16360 =< 2, _16360 > 0} ) ,  not initiates( {_93825 \= [turn_on]} ,light_on, {_93335 =< 0} ) ,  initiates(turn_on,light_on, {_93335 =< 0} ) ,  not happens(turn_on, {_93335 =< 0} )  }

[holdsAt(light_red,6.999)]


real	0m0.259s
user	0m0.213s
sys	0m0.036s


*************	 s(CASP): ?- holdsAt(light_red,T) 


Loading files: [bec_light_01.pl,bec_query0x.pl]

Default query:
	?- holdsAt(light_red,_15434).


Answer 1	(in 31.959 ms):
{  holdsAt(light_red, {_136 < 3, _136 > 2} ) ,  initiates(turn_on,light_on,2) ,  happens(turn_on,2) ,  trajectory(light_on,2,light_red, {_136 < 3, _136 > 2} ) ,  not stoppedIn(2,light_on, {_136 < 3, _136 > 2} ) ,  not -holdsAt( {_2024 \= [light_on]} , {_1729 =< 0} ) ,  not -holdsAt( {_2024 \= [light_on]} , {_1946 > 0} ) ,  not initiallyN( {_2024 \= [light_on]} ) ,  not terminates( {_2297 \= [turn_off]} , {_2024 \= [light_on]} , {_2219 =< 0} ) ,  not terminates(turn_off, {_2024 \= [light_on]} , {_2219 =< 0} ) ,  not -holdsAt(light_on, {_5265 =< 0} ) ,  not -holdsAt(light_on, {_7670 > 2} ) ,  initiallyN(light_on) ,  startedIn(0,light_on, {_7670 > 2} ) ,  initiates(turn_on,light_on,2) ,  happens(turn_on,2) ,  not terminates( {_8326 \= [turn_off]} ,light_on, {_8248 =< 2} ) ,  terminates(turn_off,light_on, {_8248 =< 2} ) ,  not happens(turn_off, {_8248 =< 2} ) ,  -holdsAt(light_on, {_12703 =< 2, _12703 > 0} ) ,  not startedIn(0,light_on, {_12703 =< 2, _12703 > 0} ) ,  not holdsAt(light_on, {_12703 =< 2, _12703 > 0} ) ,  not initiates( {_16394 \= [turn_on]} ,_16357,_16373) ,  not initiates(turn_on, {_20241 \= [light_on]} ,_20220) ,  initiates(turn_on,light_on, {_24287 \= [2,6]} ) ,  not happens(turn_on, {_24287 \= [2,6]} ) ,  not trajectory(light_on,2,light_on, {_12703 =< 2, _12703 > 0} ) ,  initiates(turn_on,light_on,6) ,  happens(turn_on,6) ,  not trajectory(light_on,6,light_on, {_12703 =< 2, _12703 > 0} ) ,  not initiates( {_58640 \= [turn_on]} ,light_on, {_58150 =< 0} ) ,  initiates(turn_on,light_on, {_58150 =< 0} ) ,  not happens(turn_on, {_58150 =< 0} )  }

[holdsAt(light_red, {_136 < 3, _136 > 2} )]



Answer 2	(in 33.392 ms):
{  holdsAt(light_red, {_136 < 7, _136 > 6} ) ,  initiates(turn_on,light_on,6) ,  happens(turn_on,6) ,  trajectory(light_on,6,light_red, {_136 < 7, _136 > 6} ) ,  not stoppedIn(6,light_on, {_136 < 7, _136 > 6} ) ,  not -holdsAt( {_2028 \= [light_on]} , {_1733 =< 0} ) ,  not -holdsAt( {_2028 \= [light_on]} , {_1950 > 0} ) ,  not initiallyN( {_2028 \= [light_on]} ) ,  not terminates( {_2301 \= [turn_off]} , {_2028 \= [light_on]} , {_2223 =< 0} ) ,  not terminates(turn_off, {_2028 \= [light_on]} , {_2223 =< 0} ) ,  not -holdsAt(light_on, {_5269 =< 0} ) ,  not -holdsAt(light_on, {_7674 > 2} ) ,  initiallyN(light_on) ,  startedIn(0,light_on, {_7674 > 2} ) ,  initiates(turn_on,light_on,2) ,  happens(turn_on,2) ,  not terminates( {_8330 \= [turn_off]} ,light_on, {_8252 =< 2} ) ,  terminates(turn_off,light_on, {_8252 =< 2} ) ,  not happens(turn_off, {_8252 =< 2} ) ,  -holdsAt(light_on, {_12707 =< 2, _12707 > 0} ) ,  not startedIn(0,light_on, {_12707 =< 2, _12707 > 0} ) ,  not holdsAt(light_on, {_12707 =< 2, _12707 > 0} ) ,  not initiates( {_16398 \= [turn_on]} ,_16361,_16377) ,  not initiates(turn_on, {_20245 \= [light_on]} ,_20224) ,  initiates(turn_on,light_on, {_24291 \= [2,6]} ) ,  not happens(turn_on, {_24291 \= [2,6]} ) ,  not trajectory(light_on,2,light_on, {_12707 =< 2, _12707 > 0} ) ,  not trajectory(light_on,6,light_on, {_12707 =< 2, _12707 > 0} ) ,  not initiates( {_49470 \= [turn_on]} ,light_on, {_48980 =< 0} ) ,  initiates(turn_on,light_on, {_48980 =< 0} ) ,  not happens(turn_on, {_48980 =< 0} )  }

[holdsAt(light_red, {_136 < 7, _136 > 6} )]


real	0m0.423s
user	0m0.265s
sys	0m0.036s
[11:26] joaquin@:sCASP-clingo$ 